objective value:                                   -7
t_n_6                                               1 	(obj:-1)
t_n_441                                             1 	(obj:-1)
t_n_515                                             1 	(obj:-1)
t_n_545                                             1 	(obj:-1)
t_n_632                                             1 	(obj:-1)
t_n_861                                             1 	(obj:-1)
t_n_967                                             1 	(obj:-1)
